Route #1: 21 45 36 5 8 20 11 37
Route #2: 35 4 1 13 26 39
Route #3: 23 29 46 9 38 12 22 33
Route #4: 47 31 41 7
Route #5: 30 25 18 14 43 24 27 16 42 10 3
Route #6: 6 2 48 17 19 44 49 34
Route #7: 28 32 40 15
Cost 741
Time 0.088357
